row=9;
column=9;
Board=[|5,0,0,0,0,1,0,7,0|0,0,0,0,7,4,0,0,9|7,4,0,3,0,9,0,6,0|4,0,0,0,0,0,0,8,0|0,0,0,4,0,0,0,0,0|0,0,0,0,0,0,0,0,2|8,6,0,9,0,0,4,0,0|0,0,3,0,4,0,1,0,0|1,9,4,0,0,0,0,3,5|];
Region=[|1,1,1,2,2,2,3,3,3|1,1,1,2,2,2,3,3,3|1,4,1,5,2,2,6,6,3|1,4,5,5,2,5,6,3,3|4,4,4,5,5,5,6,6,6|7,4,4,4,5,5,6,6,6|7,4,8,8,8,8,9,9,9|7,7,7,7,7,8,9,9,9|7,7,8,8,8,8,9,9,9|];
horizontal=[|0,1,0,0,1,0,0,0|0,0,0,1,0,0,0,0|0,0,1,0,0,1,0,0|0,0,0,0,0,0,1,0|0,1,0,0,0,0,0,0|0,0,0,0,1,1,0,0|0,1,0,0,0,1,0,0|0,0,0,0,0,0,0,1|0,0,0,0,1,1,0,0|];
vertical=[|0,0,0,0,0,0,1,0,0|0,0,0,0,0,0,0,1,0|0,0,0,0,0,0,1,0,0|0,0,1,0,0,0,0,0,0|0,0,0,1,0,0,0,0,1|0,0,0,0,0,0,0,0,0|0,1,0,0,0,0,0,0,1|1,0,1,0,0,1,0,0,0|];
